Optimal - objective value 2918.00000000
      0 x_0_1                  0                     393
      1 x_0_2                  0                     154
      2 x_0_3                  1                       0
      3 x_0_4                  0                     418
      4 x_0_5                  0                     301
      5 x_0_6                  0                     497
      6 x_1_0                  0                     943
      7 x_1_2                  0                     174
      8 x_1_3                  0                      90
      9 x_1_4                  1                     507
     10 x_1_5                  0                       0
     11 x_1_6                  0                       0
     12 x_2_0                  0                     583
     13 x_2_1                  0                     193
     14 x_2_3                  0                       0
     15 x_2_4                  0                     620
     16 x_2_5                  1                      16
     17 x_2_6                  0                     378
     18 x_3_0                  0                     646
     19 x_3_1                  0                     392
     20 x_3_2                  1                      53
     21 x_3_4                  0                     966
     22 x_3_5                  0                     276
     23 x_3_6                  0                     494
     24 x_4_0                  1                     477
     25 x_4_1                  0                     470
     26 x_4_2                  0                       0
     27 x_4_3                  0                     260
     28 x_4_5                  0                     379
     29 x_4_6                  0                     220
     30 x_5_0                  0                     615
     31 x_5_1                  0                      92
     32 x_5_2                  0                       0
     33 x_5_3                  0                       0
     34 x_5_4                  0                     669
     35 x_5_6                  1                       0
     36 x_6_0                  0                    1266
     37 x_6_1                  1                     262
     38 x_6_2                  0                     351
     39 x_6_3                  0                     322
     40 x_6_4                  0                     867
     41 x_6_5                  0                     300
     42 u_1                    5                       0
     43 u_2                    2                       0
     44 u_3                    1                       0
     45 u_4                    6                       0
     46 u_5                    3                       0
     47 u_6                    4                       0
